TCS_Benchmarks/redos_fix/regexlib1_output_distinct_887_886_73_0.txt
([A-Z][A-Za-z]+|Song of Solomon)+([A-Z][A-Za-z]+|Song of Songs)+
([A-Z][A-Za-z]+|Song of Songs)+
S.*